/* Objective function */
min: 622 xA1 + 614 xA2 + 630 xA3 + 641 xB1 +  645 xB2 + 649 xB3;

/* Constraints */
xA1 + xA2 + xA3 + xA4 = 100;
xB1 + xB2 + xB3 + xB4 = 120;
xA1 + xB1 = 80;
xA2 + xB2 = 60;
xA3 + xB3 = 70;
xA4 + xB4 = 10;
